NAME
ROWS
 N  OBJ
 L  c1_2
 L  c2_2
 L  c3_2
 L  c4_2
 L  c5_2
 L  c6_2
 L  c7_2
 L  c8_2
 L  c9_2
 L  c10_2
 L  c11_2
 L  c12_2
 L  c13_2
 L  c14_2
 L  c15_2
 L  c16_2
 L  c17_2
 L  c18_1
 L  c19_1
 L  c20_1
 L  c21_1
 L  c22_1
 L  c23_1
 L  c24_1
 L  c25_1
 L  c26_1
 L  c27_1
 L  c28_1
 L  c29_1
 L  c30_1
 L  c31_1
 L  c32_1
 L  c33_1
 L  c34_1
 L  c35_1
 L  c36_1
 L  c37_1
 L  c38_1
 G  c1_1
 G  c2_1
 G  c3_1
 G  c4_1
 G  c5_1
 G  c6_1
 G  c7_1
 G  c8_1
 G  c9_1
 G  c10_1
 G  c11_1
 G  c12_1
 G  c13_1
 G  c14_1
 G  c15_1
 G  c16_1
 G  c17_1
 G  c18
 G  c19
 G  c20
 G  c21
 G  c22
 G  c23
 G  c24
 G  c25
 G  c26
 G  c27
 G  c28
 G  c29
 G  c30
 G  c31
 G  c32
 G  c33
 G  c34
 G  c35
 G  c36
 G  c37
 G  c38
 E  c1
 E  c2
 E  c3
 E  c4
 E  c5
 E  c6
 E  c7
 E  c8
 E  c9
 E  c10
 E  c11
 E  c12
 E  c13
 E  c14
 E  c15
 E  c16
 E  c17
COLUMNS
    MARKER    'MARKER'                 'INTORG'
    z[1,1]    c7_2      2.7580089569091797
    z[1,1]    c8_2      -50.305973052978516
    z[1,2]    c9_2      268.6814270019531
    z[1,3]    c11_2     121.09261322021484
    z[1,4]    c13_2     263.7118225097656
    z[1,5]    c15_2     559.0873413085938
    z[1,6]    c17_2     28.85332679748535
    z[1,6]    c18_1     -25.13534927368164
    z[1,7]    c19_1     289.81878662109375
    z[2,1]    c21_1     373.2702941894531
    z[2,2]    c23_1     110.9963607788086
    z[2,3]    c25_1     630.95849609375
    z[2,4]    c27_1     937.6138305664062
    z[2,5]    c29_1     83.66545867919922
    z[2,6]    c31_1     471.96728515625
    z[2,7]    c33_1     545.2744750976562
    z[2,8]    c35_1     45.8082389831543
    z[2,8]    c36_1     -24.70051383972168
    z[2,9]    c37_1     344.5625915527344
    MARKER    'MARKER'                 'INTEND'
    x[0,1]    c1_2      1
    x[0,1]    c1_1      1
    x[0,1]    c1        -0.30951714515686035
    x[0,1]    c2        -0.0797046348452568
    x[0,1]    c3        0.1617298424243927
    x[0,1]    c4        -0.20575037598609924
    x[0,1]    c5        -0.15520884096622467
    x[0,1]    c6        0.11338110268115997
    x[0,1]    c7        0.2555038034915924
    x[0,2]    c2_2      1
    x[0,2]    c2_1      1
    x[0,2]    c1        0.08474703878164291
    x[0,2]    c2        -0.20250767469406128
    x[0,2]    c3        -0.12266834825277328
    x[0,2]    c4        -0.16214509308338165
    x[0,2]    c5        -0.37763744592666626
    x[0,2]    c6        -0.05444902554154396
    x[0,2]    c7        -0.2246013879776001
    x[0,3]    c3_2      1
    x[0,3]    c3_1      1
    x[0,3]    c1        0.005372640676796436
    x[0,3]    c2        0.8650813102722168
    x[0,3]    c3        1.1202194690704346
    x[0,3]    c4        1.3201382160186768
    x[0,3]    c5        1.0148955583572388
    x[0,3]    c6        0.999091386795044
    x[0,3]    c7        1.4808800220489502
    x[0,4]    c4_2      1
    x[0,4]    c4_1      1
    x[0,4]    c1        -0.20339438319206238
    x[0,4]    c2        -0.11069311946630478
    x[0,4]    c3        -0.14687561988830566
    x[0,4]    c4        -0.46700745820999146
    x[0,4]    c5        -0.7114726305007935
    x[0,4]    c6        -0.08282996714115143
    x[0,4]    c7        -0.7836777567863464
    x[0,5]    c5_2      1
    x[0,5]    c5_1      1
    x[0,5]    c1        -0.19403977692127228
    x[0,5]    c2        -0.48430752754211426
    x[0,5]    c3        -0.1846129596233368
    x[0,5]    c4        -0.5854912400245667
    x[0,5]    c5        -0.7911352515220642
    x[0,5]    c6        0.14160367846488953
    x[0,5]    c7        -0.6276315450668335
    x[0,6]    c6_2      1
    x[0,6]    c6_1      1
    x[0,6]    c1        -0.05063517391681671
    x[0,6]    c2        0.18874450027942657
    x[0,6]    c3        0.2059122622013092
    x[0,6]    c4        -0.052471134811639786
    x[0,6]    c5        -0.5418961048126221
    x[0,6]    c6        0.3190302848815918
    x[0,6]    c7        -0.0876750573515892
    x[1,1]    c7_2      1
    x[1,1]    c7_1      1
    x[1,1]    c1        1
    x[1,1]    c8        -0.15090253949165344
    x[1,1]    c9        0.1741691380739212
    x[1,1]    c10       -0.021507050842046738
    x[1,1]    c11       0.11256589740514755
    x[1,1]    c12       0.1863953173160553
    x[1,1]    c13       0.21728508174419403
    x[1,1]    c14       -0.15044666826725006
    x[1,1]    c15       0.20786647498607635
    x[1,1]    c16       0.1443798542022705
    x[1,2]    c9_2      1
    x[1,2]    c9_1      1
    x[1,2]    c2        1
    x[1,2]    c8        -0.23597845435142517
    x[1,2]    c9        0.08019378781318665
    x[1,2]    c10       -0.5639106035232544
    x[1,2]    c11       -0.6518126130104065
    x[1,2]    c12       -0.20996423065662384
    x[1,2]    c13       -0.2586286962032318
    x[1,2]    c14       -0.36382803320884705
    x[1,2]    c15       -0.08751704543828964
    x[1,2]    c16       -0.2113703191280365
    x[1,3]    c11_2     1
    x[1,3]    c11_1     1
    x[1,3]    c3        1
    x[1,3]    c8        -0.11565109342336655
    x[1,3]    c9        -0.07837795466184616
    x[1,3]    c10       -0.48056560754776
    x[1,3]    c11       -0.2895621359348297
    x[1,3]    c12       -0.08599011600017548
    x[1,3]    c13       -0.2561327815055847
    x[1,3]    c14       -0.2099824696779251
    x[1,3]    c15       -0.0763867124915123
    x[1,3]    c16       0.20034880936145782
    x[1,4]    c13_2     1
    x[1,4]    c13_1     1
    x[1,4]    c4        1
    x[1,4]    c8        -0.18764910101890564
    x[1,4]    c9        -0.12406199425458908
    x[1,4]    c10       -0.5061784982681274
    x[1,4]    c11       -0.4821949601173401
    x[1,4]    c12       0.06623051315546036
    x[1,4]    c13       -0.28389933705329895
    x[1,4]    c14       -0.3058331310749054
    x[1,4]    c15       -0.05194806307554245
    x[1,4]    c16       -0.04154939204454422
    x[1,5]    c15_2     1
    x[1,5]    c15_1     1
    x[1,5]    c5        1
    x[1,5]    c8        -0.3683910071849823
    x[1,5]    c9        -0.20181208848953247
    x[1,5]    c10       -0.3763236105442047
    x[1,5]    c11       -0.7635470032691956
    x[1,5]    c12       0.0015193831641227007
    x[1,5]    c13       -0.4167752265930176
    x[1,5]    c14       -0.4951043128967285
    x[1,5]    c15       -0.0546024888753891
    x[1,5]    c16       -0.45197272300720215
    x[1,6]    c17_2     1
    x[1,6]    c17_1     1
    x[1,6]    c6        1
    x[1,6]    c8        -0.2389972060918808
    x[1,6]    c9        -0.2084427773952484
    x[1,6]    c10       -0.060147128999233246
    x[1,6]    c11       0.003280156059190631
    x[1,6]    c12       -0.27044442296028137
    x[1,6]    c13       -0.22444798052310944
    x[1,6]    c14       -0.4320180416107178
    x[1,6]    c15       -0.16308695077896118
    x[1,6]    c16       -0.32615432143211365
    x[1,7]    c19_1     1
    x[1,7]    c19       1
    x[1,7]    c7        1
    x[1,7]    c8        -0.11292729526758194
    x[1,7]    c9        0.2484237551689148
    x[1,7]    c10       -0.2594418525695801
    x[1,7]    c11       -0.5968453288078308
    x[1,7]    c12       -0.06732655316591263
    x[1,7]    c13       -0.1959352046251297
    x[1,7]    c14       -0.1771845519542694
    x[1,7]    c15       0.24454298615455627
    x[1,7]    c16       -0.07819083333015442
    x[2,1]    c21_1     1
    x[2,1]    c21       1
    x[2,1]    c8        1
    x[2,1]    c17       -0.16669893264770508
    x[2,2]    c23_1     1
    x[2,2]    c23       1
    x[2,2]    c9        1
    x[2,2]    c17       0.025057295337319374
    x[2,3]    c25_1     1
    x[2,3]    c25       1
    x[2,3]    c10       1
    x[2,3]    c17       -0.3712083399295807
    x[2,4]    c27_1     1
    x[2,4]    c27       1
    x[2,4]    c11       1
    x[2,4]    c17       -0.5474609136581421
    x[2,5]    c29_1     1
    x[2,5]    c29       1
    x[2,5]    c12       1
    x[2,5]    c17       0.0614435113966465
    x[2,6]    c31_1     1
    x[2,6]    c31       1
    x[2,6]    c13       1
    x[2,6]    c17       -0.1719457507133484
    x[2,7]    c33_1     1
    x[2,7]    c33       1
    x[2,7]    c14       1
    x[2,7]    c17       -0.31781187653541565
    x[2,8]    c35_1     1
    x[2,8]    c35       1
    x[2,8]    c15       1
    x[2,8]    c17       0.034679509699344635
    x[2,9]    c37_1     1
    x[2,9]    c37       1
    x[2,9]    c16       1
    x[2,9]    c17       -0.13715341687202454
    x[3,1]    c17       1
    x[3,1]    OBJ       1
    s[1,1]    c8_2      1
    s[1,1]    c8_1      1
    s[1,1]    c1        -1
    s[1,2]    c10_2     1
    s[1,2]    c10_1     1
    s[1,2]    c2        -1
    s[1,3]    c12_2     1
    s[1,3]    c12_1     1
    s[1,3]    c3        -1
    s[1,4]    c14_2     1
    s[1,4]    c14_1     1
    s[1,4]    c4        -1
    s[1,5]    c16_2     1
    s[1,5]    c16_1     1
    s[1,5]    c5        -1
    s[1,6]    c18_1     1
    s[1,6]    c18       1
    s[1,6]    c6        -1
    s[1,7]    c20_1     1
    s[1,7]    c20       1
    s[1,7]    c7        -1
    s[2,1]    c22_1     1
    s[2,1]    c22       1
    s[2,1]    c8        -1
    s[2,2]    c24_1     1
    s[2,2]    c24       1
    s[2,2]    c9        -1
    s[2,3]    c26_1     1
    s[2,3]    c26       1
    s[2,3]    c10       -1
    s[2,4]    c28_1     1
    s[2,4]    c28       1
    s[2,4]    c11       -1
    s[2,5]    c30_1     1
    s[2,5]    c30       1
    s[2,5]    c12       -1
    s[2,6]    c32_1     1
    s[2,6]    c32       1
    s[2,6]    c13       -1
    s[2,7]    c34_1     1
    s[2,7]    c34       1
    s[2,7]    c14       -1
    s[2,8]    c36_1     1
    s[2,8]    c36       1
    s[2,8]    c15       -1
    s[2,9]    c38_1     1
    s[2,9]    c38       1
    s[2,9]    c16       -1
RHS
    rhs       c1_2      180
    rhs       c2_2      1200
    rhs       c3_2      40
    rhs       c4_2      60
    rhs       c5_2      50
    rhs       c6_2      30
    rhs       c7_2      2.7580089569091797
    rhs       c8_2      0
    rhs       c9_2      268.6814270019531
    rhs       c10_2     0
    rhs       c11_2     121.09261322021484
    rhs       c12_2     0
    rhs       c13_2     263.7118225097656
    rhs       c14_2     0
    rhs       c15_2     559.0873413085938
    rhs       c16_2     0
    rhs       c17_2     28.85332679748535
    rhs       c18_1     0
    rhs       c19_1     289.81878662109375
    rhs       c20_1     0
    rhs       c21_1     373.2702941894531
    rhs       c22_1     0
    rhs       c23_1     110.9963607788086
    rhs       c24_1     0
    rhs       c25_1     630.95849609375
    rhs       c26_1     0
    rhs       c27_1     937.6138305664062
    rhs       c28_1     0
    rhs       c29_1     83.66545867919922
    rhs       c30_1     0
    rhs       c31_1     471.96728515625
    rhs       c32_1     0
    rhs       c33_1     545.2744750976562
    rhs       c34_1     0
    rhs       c35_1     45.8082389831543
    rhs       c36_1     0
    rhs       c37_1     344.5625915527344
    rhs       c38_1     0
    rhs       c1_1      120
    rhs       c2_1      900
    rhs       c3_1      20
    rhs       c4_1      40
    rhs       c5_1      30
    rhs       c6_1      10
    rhs       c7_1      0
    rhs       c8_1      0
    rhs       c9_1      0
    rhs       c10_1     0
    rhs       c11_1     0
    rhs       c12_1     0
    rhs       c13_1     0
    rhs       c14_1     0
    rhs       c15_1     0
    rhs       c16_1     0
    rhs       c17_1     0
    rhs       c18       0
    rhs       c19       0
    rhs       c20       0
    rhs       c21       0
    rhs       c22       0
    rhs       c23       0
    rhs       c24       0
    rhs       c25       0
    rhs       c26       0
    rhs       c27       0
    rhs       c28       0
    rhs       c29       0
    rhs       c30       0
    rhs       c31       0
    rhs       c32       0
    rhs       c33       0
    rhs       c34       0
    rhs       c35       0
    rhs       c36       0
    rhs       c37       0
    rhs       c38       0
    rhs       c1        0
    rhs       c2        -0.34251081943511963
    rhs       c3        -0.2814924418926239
    rhs       c4        -0.3637438416481018
    rhs       c5        -0.21930772066116333
    rhs       c6        -0.4293261766433716
    rhs       c7        -0.4573327898979187
    rhs       c8        0.37424275279045105
    rhs       c9        0.2357136607170105
    rhs       c10       0.3843080401420593
    rhs       c11       0.3930933475494385
    rhs       c12       0.30783605575561523
    rhs       c13       0.31964191794395447
    rhs       c14       0.4034281373023987
    rhs       c15       0.18442393839359283
    rhs       c16       0.3518468141555786
    rhs       c17       0.560681164264679
RANGES
BOUNDS
 BV bounds    z[1,1]
 BV bounds    z[1,2]
 BV bounds    z[1,3]
 BV bounds    z[1,4]
 BV bounds    z[1,5]
 BV bounds    z[1,6]
 BV bounds    z[1,7]
 BV bounds    z[2,1]
 BV bounds    z[2,2]
 BV bounds    z[2,3]
 BV bounds    z[2,4]
 BV bounds    z[2,5]
 BV bounds    z[2,6]
 BV bounds    z[2,7]
 BV bounds    z[2,8]
 BV bounds    z[2,9]
 FR bounds    x[0,1]
 FR bounds    x[0,2]
 FR bounds    x[0,3]
 FR bounds    x[0,4]
 FR bounds    x[0,5]
 FR bounds    x[0,6]
 FR bounds    x[1,1]
 FR bounds    x[1,2]
 FR bounds    x[1,3]
 FR bounds    x[1,4]
 FR bounds    x[1,5]
 FR bounds    x[1,6]
 FR bounds    x[1,7]
 FR bounds    x[2,1]
 FR bounds    x[2,2]
 FR bounds    x[2,3]
 FR bounds    x[2,4]
 FR bounds    x[2,5]
 FR bounds    x[2,6]
 FR bounds    x[2,7]
 FR bounds    x[2,8]
 FR bounds    x[2,9]
 FR bounds    x[3,1]
 FR bounds    s[1,1]
 FR bounds    s[1,2]
 FR bounds    s[1,3]
 FR bounds    s[1,4]
 FR bounds    s[1,5]
 FR bounds    s[1,6]
 FR bounds    s[1,7]
 FR bounds    s[2,1]
 FR bounds    s[2,2]
 FR bounds    s[2,3]
 FR bounds    s[2,4]
 FR bounds    s[2,5]
 FR bounds    s[2,6]
 FR bounds    s[2,7]
 FR bounds    s[2,8]
 FR bounds    s[2,9]
ENDATA
